n = 10; 

m=14; 


 
18	29	21	1	11	8	4	24	36	31
24	33	33	28	19	28	11	23	20	1
35	4	32	37	34	27	5	27	17	37
6	12	17	17	7	19	17	27	1	24
20	5	23	13	5	19	13	19	24	34
23	34	31	24	28	2	13	27	36	17
31	38	13	19	14	10	30	28	32	31
18	26	35	7	35	23	30	33	12	21
16	23	24	29	2	9	27	33	21	32
16	34	6	37	20	17	38	13	19	11
23	16	28	37	24	32	28	29	6	13
4	13	19	34	33	37	27	26	33	32
7	16	32	23	16	31	16	29	33	36
31	38	13	19	14	10	30	28	32	31

 
  			
			
		
